c boolean__Z14set_or_clear_1bjj
p cnf 96 225
34 -2 0
35 -3 0
36 -4 0
37 -5 0
38 -6 0
39 -7 0
40 -8 0
41 -9 0
42 -10 0
43 -11 0
44 -12 0
45 -13 0
46 -14 0
47 -15 0
48 -16 0
49 -17 0
50 -18 0
51 -19 0
52 -20 0
53 -21 0
54 -22 0
55 -23 0
56 -24 0
57 -25 0
58 -26 0
59 -27 0
60 -28 0
61 -29 0
62 -30 0
63 -31 0
64 -32 0
65 -33 0
-1 34 2 0
1 98 0
-1 35 3 0
1 99 0
-1 36 4 0
1 100 0
-1 37 5 0
1 101 0
-1 38 6 0
1 102 0
-1 39 7 0
1 103 0
-1 40 8 0
1 104 0
-1 41 9 0
1 105 0
-1 42 10 0
1 106 0
-1 43 11 0
1 107 0
-1 44 12 0
1 108 0
-1 45 13 0
1 109 0
-1 46 14 0
1 110 0
-1 47 15 0
1 111 0
-1 48 16 0
1 112 0
-1 49 17 0
1 113 0
-1 50 18 0
1 114 0
-1 51 19 0
1 115 0
-1 52 20 0
1 116 0
-1 53 21 0
1 117 0
-1 54 22 0
1 118 0
-1 55 23 0
1 119 0
-1 56 24 0
1 120 0
-1 57 25 0
1 121 0
-1 58 26 0
1 122 0
-1 59 27 0
1 123 0
-1 60 28 0
1 124 0
-1 61 29 0
1 125 0
-1 62 30 0
1 126 0
-1 63 31 0
1 127 0
-1 64 32 0
1 128 0
-1 65 33 0
1 129 0
